
  32    4
  10   10   10   10

   0   0   0   0   0   3 2 30 31 
   7   1   1   0   1   1 3 
   6   4   0   1   7   3 23 19 4 
   7   3   5   0   2   1 5 
   7   6   2   0   1   2 29 6 
   4   8   7   0   5   1 7 
   5   9   6   4   0   3 28 12 8 
   9   0   5   6   6   2 16 9 
   5   3   1   0   4   2 21 10 
   4   5   2   0   4   2 26 11 
   1   6   3   3   0   1 13 
   3   2   3   0   3   2 27 15 
   2   0   3   8   3   1 14 
   4   3   5   5   0   1 15 
   1   0   4   6   4   1 17 
   8   3   3   4   0   1 17 
   7   4   6   3   0   1 18 
   1   0   3   3   3   2 25 20 
  10   2   6   0   3   2 25 24 
   1   0   6   2   5   1 22 
   7   4   0   8   4   1 22 
   3   5   0   5   3   1 24 
  10   3   0   2   5   1 25 
   5   2   4   3   0   1 32
   5   3   6   0   4   1 32
   9   0   4   3   4   1 32
   7   6   0   4   6   1 32
   6   4   0   3   6   1 32
   1   2   2   0   6   1 32
   1   4   5   0   4   1 32
   2   4   0   3   3   1 32
   0   0   0   0   0   0 
